proyfinal/src/viki/013/andrea/andrea-localstore/experimentInOfficeAgust.take6/worker_4/2a4136b2-3b16-4573-b1e2-e8effc0e4b36.als.cnf.out
Reading from standard input... Use '--help' for help.
============================[ Problem Statistics ]=============================
|                                                                             |
|  Number of variables:         87638                                         |
|  Number of clauses:          161767                                         |
|  Parse time:                   0.04 s                                       |
|                                                                             |
============================[ Search Statistics ]==============================
| Conflicts |          ORIGINAL         |          LEARNT          | Progress |
|           |    Vars  Clauses Literals |    Limit  Clauses Lit/Cl |          |
===============================================================================
|       100 |   64005   110912   277243 |    40667      100     11 | 26.967 % |
|       250 |   64005   110912   277243 |    44734      250     25 | 26.967 % |
|       475 |   64005   110912   277243 |    49207      475     79 | 26.967 % |
|       812 |   64005   110912   277243 |    54128      812     70 | 26.967 % |
|      1318 |   64004   110868   277153 |    59541     1315     62 | 26.968 % |
|      2077 |   53324    79115   198939 |    65495     1972     66 | 39.154 % |
|      3216 |   53164    78486   197401 |    72045     3070     61 | 39.337 % |
|      4924 |   53018    77846   195812 |    79249     4767     59 | 39.503 % |
|      7486 |   52329    75270   189472 |    87174     6017     55 | 40.290 % |
|     11330 |   52005    73895   186171 |    95892     9214     57 | 40.659 % |
|     17096 |   51796    73137   184345 |   105481    14242     60 | 40.898 % |
===============================================================================
restarts              : 76
conflicts             : 21203          (7624 /sec)
decisions             : 67299          (0.00 % random) (24200 /sec)
propagations          : 29104787       (10465794 /sec)
conflict literals     : 1222298        (50.09 % deleted)
Memory used           : 34.55 MB
CPU time              : 2.78094 s

UNSATISFIABLE
